3
2
15
12
2
100 250 
80 20 30 70 23 32 18 30 42 15 80 45
0 25 10 7 8 9 12 4 16 12 10 11 2 8
25 0 8 6 15 3 20 9 10 8 12 3 2 5                          
10 8 0 4 6 10 8 5 3 4 17 9 10 13
7 6 5 0 4 3 2 7 9 12 8 6 10 17
8 15 6 3 0 9 11 10 6 13 20 7 6 5
9 20 10 2 3 0 21 19 10 12 13 14 9 8
12 9 8 7 5 12 0 10 10 12 8 22 9 10
4 10 5 9 10 12 9 0 9 12 15 11 18 19
16 8 3 12 6 11 7 9 0 6 12 9 8 5 
12 12 4 8 13 21 10 8 9 0 11 5 7 8 
10 3 17 6 20 13 15 6 7 11 0 8 16 15
11 2 9 10 7 8 15 12 8 3 6 0 19 16
2 5 10 12 6 17 11 7 13 7 8 9 0 14
8 6 13 7 5 18 9 12 8 12 19 17 15 0 
1 3 1 2 3 2 1 3 1 1 3 2

